* ENCODING=ISO-8859-1
NAME          CPLEX
ROWS
 N  obj1    
 G  c1      
 G  c2      
 G  c3      
 G  c4      
 G  c5      
 G  c6      
 G  c7      
 G  c8      
 G  c9      
 G  c10     
 G  c11     
 G  c12     
 G  c13     
 G  c14     
 G  c15     
 G  c16     
 G  c17     
 G  c18     
 G  c19     
 G  c20     
 G  c21     
 G  c22     
 G  c23     
 G  c24     
 G  c25     
 G  c26     
 G  c27     
 G  c28     
 G  c29     
 G  c30     
COLUMNS
    MARK0000  'MARKER'                 'INTORG'
    x1        obj1                            1
    x1        c10                           925
    x1        c15                           719
    x1        c27                           793
    x1        c29                           591
    x2        obj1                            1
    x3        obj1                            1
    x3        c4                            932
    x3        c19                           419
    x4        obj1                            1
    x4        c2                            631
    x4        c4                            777
    x4        c8                            162
    x4        c20                           449
    x4        c23                           324
    x4        c25                           362
    x5        obj1                            1
    x5        c5                            271
    x5        c11                           593
    x5        c27                           332
    x6        obj1                            1
    x6        c2                            333
    x6        c28                           684
    x7        obj1                            1
    x7        c4                            872
    x7        c8                            394
    x7        c15                           777
    x7        c24                           426
    x8        obj1                            1
    x8        c1                            703
    x8        c10                           720
    x8        c12                           852
    x8        c23                           608
    x9        obj1                            1
    x9        c14                           606
    x9        c17                           905
    x10       obj1                            1
    x10       c9                            875
    x11       obj1                            1
    x11       c4                            738
    x12       obj1                            1
    x12       c7                            266
    x12       c8                            226
    x12       c10                           442
    x12       c16                           294
    x13       obj1                            1
    x13       c2                            167
    x13       c17                           731
    x13       c19                           197
    x13       c28                           780
    x14       obj1                            1
    x14       c3                            213
    x14       c8                            283
    x14       c10                           822
    x15       obj1                            1
    x15       c6                            302
    x15       c19                           473
    x15       c21                           294
    x15       c23                           261
    x15       c26                           371
    x16       obj1                            1
    x16       c5                            742
    x16       c28                           446
    x17       obj1                            1
    x17       c7                            477
    x17       c18                           913
    x18       obj1                            1
    x18       c3                            282
    x18       c10                           655
    x18       c11                           382
    x19       obj1                            1
    x20       obj1                            1
    x20       c13                           625
    x20       c16                           803
    x20       c23                           364
    x20       c28                           343
    x21       obj1                            1
    x21       c9                            304
    x21       c28                           779
    x22       obj1                            1
    x22       c2                            118
    x23       obj1                            1
    x23       c14                           956
    x23       c15                           750
    x23       c26                           108
    x24       obj1                            1
    x24       c16                           651
    x24       c18                           747
    x24       c25                           782
    x25       obj1                            1
    x25       c9                            740
    x25       c29                           626
    x26       obj1                            1
    x26       c13                           710
    x26       c18                           649
    x27       obj1                            1
    x27       c22                           483
    x27       c24                           379
    x28       obj1                            1
    x28       c9                            172
    x29       obj1                            1
    x29       c2                            878
    x29       c11                           477
    x29       c19                           214
    x29       c22                           266
    x30       obj1                            1
    x30       c11                           284
    x30       c30                           563
    x31       obj1                            1
    x31       c16                           487
    x32       obj1                            1
    x32       c5                            526
    x32       c20                           218
    x32       c28                           549
    x33       obj1                            1
    x33       c16                           717
    x33       c21                           176
    x33       c29                           863
    x34       obj1                            1
    x34       c8                            913
    x34       c10                           587
    x34       c30                           803
    x35       obj1                            1
    x35       c3                            597
    x35       c18                           934
    x35       c24                           478
    x35       c27                           162
    x36       obj1                            1
    x36       c10                           407
    x36       c11                           184
    x37       obj1                            1
    x37       c15                           938
    x37       c21                           677
    x38       obj1                            1
    x38       c3                            351
    x39       obj1                            1
    x39       c6                            855
    x39       c17                           118
    x39       c28                           743
    x40       obj1                            1
    x40       c1                            611
    x40       c16                           693
    x41       obj1                            1
    x41       c9                            936
    x41       c12                           675
    x41       c26                           250
    x42       obj1                            1
    x42       c14                           519
    x42       c25                           338
    x43       obj1                            1
    x43       c12                           133
    x43       c25                           161
    x44       obj1                            1
    x44       c10                           692
    x44       c27                           629
    x44       c28                           595
    x45       obj1                            1
    x45       c5                            679
    x45       c6                            885
    x46       obj1                            1
    x46       c3                            820
    x46       c9                            428
    x46       c30                           657
    x47       obj1                            1
    x47       c2                            394
    x47       c12                           369
    x48       obj1                            1
    x48       c2                            252
    x48       c7                            836
    x48       c11                           395
    x49       obj1                            1
    x49       c27                           959
    x50       obj1                            1
    x50       c7                            353
    x50       c19                           781
    x51       obj1                            1
    x51       c27                           652
    x52       obj1                            1
    x52       c13                           664
    x52       c19                           944
    x53       obj1                            1
    x53       c1                            928
    x53       c26                           232
    x54       obj1                            1
    x54       c4                            766
    x54       c6                            227
    x54       c18                           313
    x55       obj1                            1
    x55       c5                            686
    x55       c10                           476
    x55       c19                           187
    x56       obj1                            1
    x56       c19                           159
    x56       c28                           235
    x57       obj1                            1
    x57       c14                           556
    x57       c20                           597
    x57       c24                           171
    x58       obj1                            1
    x58       c8                            318
    x58       c19                           913
    x58       c22                           757
    x58       c23                           850
    x58       c29                           292
    x59       obj1                            1
    x59       c6                            384
    x59       c9                            416
    x59       c16                           253
    x60       obj1                            1
    x60       c15                           231
    MARK0001  'MARKER'                 'INTEND'
RHS
    rhs       c1                           1121
    rhs       c2                           1387
    rhs       c3                           1132
    rhs       c4                           2043
    rhs       c5                           1452
    rhs       c6                           1327
    rhs       c7                            966
    rhs       c8                           1148
    rhs       c9                           1936
    rhs       c10                          2863
    rhs       c11                          1158
    rhs       c12                          1015
    rhs       c13                          1000
    rhs       c14                          1319
    rhs       c15                          1708
    rhs       c16                          1949
    rhs       c17                           877
    rhs       c18                          1778
    rhs       c19                          2144
    rhs       c20                           632
    rhs       c21                           574
    rhs       c22                           753
    rhs       c23                          1204
    rhs       c24                           727
    rhs       c25                           822
    rhs       c26                           481
    rhs       c27                          1764
    rhs       c28                          2577
    rhs       c29                          1186
    rhs       c30                          1012
BOUNDS
 LI bnd       x1        0
 LI bnd       x2        0
 LI bnd       x3        0
 LI bnd       x4        0
 LI bnd       x5        0
 LI bnd       x6        0
 LI bnd       x7        0
 LI bnd       x8        0
 LI bnd       x9        0
 LI bnd       x10       0
 LI bnd       x11       0
 LI bnd       x12       0
 LI bnd       x13       0
 LI bnd       x14       0
 LI bnd       x15       0
 LI bnd       x16       0
 LI bnd       x17       0
 LI bnd       x18       0
 LI bnd       x19       0
 LI bnd       x20       0
 LI bnd       x21       0
 LI bnd       x22       0
 LI bnd       x23       0
 LI bnd       x24       0
 LI bnd       x25       0
 LI bnd       x26       0
 LI bnd       x27       0
 LI bnd       x28       0
 LI bnd       x29       0
 LI bnd       x30       0
 LI bnd       x31       0
 LI bnd       x32       0
 LI bnd       x33       0
 LI bnd       x34       0
 LI bnd       x35       0
 LI bnd       x36       0
 LI bnd       x37       0
 LI bnd       x38       0
 LI bnd       x39       0
 LI bnd       x40       0
 LI bnd       x41       0
 LI bnd       x42       0
 LI bnd       x43       0
 LI bnd       x44       0
 LI bnd       x45       0
 LI bnd       x46       0
 LI bnd       x47       0
 LI bnd       x48       0
 LI bnd       x49       0
 LI bnd       x50       0
 LI bnd       x51       0
 LI bnd       x52       0
 LI bnd       x53       0
 LI bnd       x54       0
 LI bnd       x55       0
 LI bnd       x56       0
 LI bnd       x57       0
 LI bnd       x58       0
 LI bnd       x59       0
 LI bnd       x60       0
ENDATA
